\ENCODING=ISO-8859-1
\Problem name: IloCplex

Minimize
 obj1: 80 x1 + 90 x2 + 90 x3 - 70 x4 + 77 x5 - 75 x6 + 80 x7 + 150 x8 + 145 x9
       + 80 x10 + 90 x11 + 90 x12 - 70 x13 + 77 x14 - 75 x15 + 80 x16 + 150 x17
       + 145 x18 + 80 x19 + 90 x20 + 90 x21 - 70 x22 + 77 x23 - 75 x24 + 80 x25
       + 150 x26 + 145 x27 + 80 x28 + 90 x29 + 90 x30 - 70 x31 + 77 x32
       - 75 x33 + 80 x34 + 150 x35 + 145 x36 + 80 x37 + 90 x38 + 90 x39
       - 70 x40 + 77 x41 - 75 x42 + 80 x43 + 150 x44 + 145 x45 + 80 x46
       + 90 x47 + 90 x48 - 70 x49 + 77 x50 - 75 x51 + 80 x52 + 150 x53
       + 145 x54 + 80 x55 + 90 x56 + 110 x57 - 90 x58 + 77 x59 - 75 x60
       + 80 x61 + 150 x62 + 145 x63 + 80 x64 + 90 x65 + 110 x66 - 90 x67
       + 77 x68 - 75 x69 + 80 x70 + 150 x71 + 145 x72 + 80 x73 + 90 x74
       + 110 x75 - 90 x76 + 83 x77 - 80 x78 + 80 x79 + 150 x80 + 145 x81
       + 80 x82 + 90 x83 + 110 x84 - 90 x85 + 83 x86 - 80 x87 + 80 x88
       + 150 x89 + 145 x90 + 80 x91 + 90 x92 + 110 x93 - 90 x94 + 83 x95
       - 80 x96 + 80 x97 + 150 x98 + 145 x99 + 80 x100 + 90 x101 + 125 x102
       - 105 x103 + 83 x104 - 80 x105 + 80 x106 + 150 x107 + 145 x108 + 80 x109
       + 90 x110 + 125 x111 - 105 x112 + 83 x113 - 80 x114 + 80 x115 + 150 x116
       + 145 x117 + 80 x118 + 90 x119 + 125 x120 - 105 x121 + 83 x122 - 80 x123
       + 80 x124 + 150 x125 + 145 x126 + 80 x127 + 90 x128 + 125 x129
       - 105 x130 + 83 x131 - 80 x132 + 80 x133 + 150 x134 + 145 x135 + 80 x136
       + 90 x137 + 125 x138 - 105 x139 + 83 x140 - 80 x141 + 80 x142 + 150 x143
       + 145 x144 + 80 x145 + 90 x146 + 125 x147 - 105 x148 + 83 x149 - 80 x150
       + 80 x151 + 150 x152 + 145 x153 + 80 x154 + 90 x155 + 125 x156
       - 105 x157 + 83 x158 - 80 x159 + 80 x160 + 150 x161 + 145 x162 + 80 x163
       + 90 x164 + 110 x165 - 90 x166 + 78 x167 - 78 x168 + 80 x169 + 150 x170
       + 145 x171 + 80 x172 + 90 x173 + 110 x174 - 90 x175 + 78 x176 - 78 x177
       + 80 x178 + 150 x179 + 145 x180 + 80 x181 + 90 x182 + 110 x183 - 90 x184
       + 78 x185 - 78 x186 + 80 x187 + 150 x188 + 145 x189 + 80 x190 + 90 x191
       + 110 x192 - 90 x193 + 78 x194 - 78 x195 + 80 x196 + 150 x197 + 145 x198
       + 80 x199 + 90 x200 + 110 x201 - 90 x202 + 78 x203 - 78 x204 + 80 x205
       + 150 x206 + 145 x207 + 80 x208 + 90 x209 + 110 x210 - 90 x211 + 78 x212
       - 78 x213 + 80 x214 + 150 x215 + 145 x216 + 24
Subject To
 c1:   x1 >= 0
 c2:   x1 <= 80
 c3:   x2 >= 0
 c4:   x2 <= 90
 c5:   x7 >= 0
 c6:   x7 <= 80
 c7:   x8 >= 30
 c8:   x8 <= 60
 c9:   x9 >= 50
 c10:  x9 <= 100
 c11:  - 0.833333313465118 x8 + x217  = 0
 c12:  - 1.25 x9 + x218  = 0
 c13:  x219 >= 0
 c14:  x219 <= 1
 c15:  x219 - 0.00474999994039536 x220 + 0.00526315796078077 x221
        = 0.200000002980232
 c16:  x220 >= 0
 c17:  x221 >= 0
 c18:  x220 <= 168.421051025391
 c19:  x221 <= 38
 c20:  x1 + x2 + x3 - x4 + x8 + x9 - x220 + x221  = 169
 c21:  x5 - x6 + x7 + x217 + x218  = 130
 c22:  x10 >= 0
 c23:  x10 <= 80
 c24:  x11 >= 0
 c25:  x11 <= 90
 c26:  x16 >= 0
 c27:  x16 <= 80
 c28:  x17 >= 30
 c29:  x17 <= 60
 c30:  x18 >= 50
 c31:  x18 <= 100
 c32:  - 0.833333313465118 x17 + x222  = 0
 c33:  - 1.25 x18 + x223  = 0
 c34:  x224 >= 0
 c35:  x224 <= 1
 c36:  - x219 + x224 - 0.00474999994039536 x225 + 0.00526315796078077 x226  = 0
 c37:  x225 >= 0
 c38:  x226 >= 0
 c39:  210.526318431231 x219 + x225 <= 210.526318431231
 c40:  - 189.999997615814 x219 + x226 <= 0
 c41:  x10 + x11 + x12 - x13 + x17 + x18 - x225 + x226  = 175
 c42:  x14 - x15 + x16 + x222 + x223  = 125
 c43:  x19 >= 0
 c44:  x19 <= 80
 c45:  x20 >= 0
 c46:  x20 <= 90
 c47:  x25 >= 0
 c48:  x25 <= 80
 c49:  x26 >= 30
 c50:  x26 <= 60
 c51:  x27 >= 50
 c52:  x27 <= 100
 c53:  - 0.833333313465118 x26 + x227  = 0
 c54:  - 1.25 x27 + x228  = 0
 c55:  x229 >= 0
 c56:  x229 <= 1
 c57:  - x224 + x229 - 0.00474999994039536 x230 + 0.00526315796078077 x231  = 0
 c58:  x230 >= 0
 c59:  x231 >= 0
 c60:  210.526318431231 x224 + x230 <= 210.526318431231
 c61:  - 189.999997615814 x224 + x231 <= 0
 c62:  x19 + x20 + x21 - x22 + x26 + x27 - x230 + x231  = 179
 c63:  x23 - x24 + x25 + x227 + x228  = 120
 c64:  x28 >= 0
 c65:  x28 <= 80
 c66:  x29 >= 0
 c67:  x29 <= 90
 c68:  x34 >= 0
 c69:  x34 <= 80
 c70:  x35 >= 30
 c71:  x35 <= 60
 c72:  x36 >= 50
 c73:  x36 <= 100
 c74:  - 0.833333313465118 x35 + x232  = 0
 c75:  - 1.25 x36 + x233  = 0
 c76:  x234 >= 0
 c77:  x234 <= 1
 c78:  - x229 + x234 - 0.00474999994039536 x235 + 0.00526315796078077 x236  = 0
 c79:  x235 >= 0
 c80:  x236 >= 0
 c81:  210.526318431231 x229 + x235 <= 210.526318431231
 c82:  - 189.999997615814 x229 + x236 <= 0
 c83:  x28 + x29 + x30 - x31 + x35 + x36 - x235 + x236  = 171
 c84:  x32 - x33 + x34 + x232 + x233  = 120
 c85:  x37 >= 0
 c86:  x37 <= 80
 c87:  x38 >= 0
 c88:  x38 <= 90
 c89:  x43 >= 0
 c90:  x43 <= 80
 c91:  x44 >= 30
 c92:  x44 <= 60
 c93:  x45 >= 50
 c94:  x45 <= 100
 c95:  - 0.833333313465118 x44 + x237  = 0
 c96:  - 1.25 x45 + x238  = 0
 c97:  x239 >= 0
 c98:  x239 <= 1
 c99:  - x234 + x239 - 0.00474999994039536 x240 + 0.00526315796078077 x241  = 0
 c100: x240 >= 0
 c101: x241 >= 0
 c102: 210.526318431231 x234 + x240 <= 210.526318431231
 c103: - 189.999997615814 x234 + x241 <= 0
 c104: x37 + x38 + x39 - x40 + x44 + x45 - x240 + x241  = 181
 c105: x41 - x42 + x43 + x237 + x238  = 125
 c106: x46 >= 0
 c107: x46 <= 80
 c108: x47 >= 0
 c109: x47 <= 90
 c110: x52 >= 0
 c111: x52 <= 80
 c112: x53 >= 30
 c113: x53 <= 60
 c114: x54 >= 50
 c115: x54 <= 100
 c116: - 0.833333313465118 x53 + x242  = 0
 c117: - 1.25 x54 + x243  = 0
 c118: x244 >= 0
 c119: x244 <= 1
 c120: - x239 + x244 - 0.00474999994039536 x245 + 0.00526315796078077 x246  = 0
 c121: x245 >= 0
 c122: x246 >= 0
 c123: 210.526318431231 x239 + x245 <= 210.526318431231
 c124: - 189.999997615814 x239 + x246 <= 0
 c125: x46 + x47 + x48 - x49 + x53 + x54 - x245 + x246  = 172
 c126: x50 - x51 + x52 + x242 + x243  = 135
 c127: x55 >= 0
 c128: x55 <= 80
 c129: x56 >= 0
 c130: x56 <= 90
 c131: x61 >= 0
 c132: x61 <= 80
 c133: x62 >= 30
 c134: x62 <= 60
 c135: x63 >= 50
 c136: x63 <= 100
 c137: - 0.833333313465118 x62 + x247  = 0
 c138: - 1.25 x63 + x248  = 0
 c139: x249 >= 0
 c140: x249 <= 1
 c141: - x244 + x249 - 0.00474999994039536 x250 + 0.00526315796078077 x251  = 0
 c142: x250 >= 0
 c143: x251 >= 0
 c144: 210.526318431231 x244 + x250 <= 210.526318431231
 c145: - 189.999997615814 x244 + x251 <= 0
 c146: x55 + x56 + x57 - x58 + x62 + x63 - x250 + x251  = 270
 c147: x59 - x60 + x61 + x247 + x248  = 150
 c148: x64 >= 0
 c149: x64 <= 80
 c150: x65 >= 0
 c151: x65 <= 90
 c152: x70 >= 0
 c153: x70 <= 80
 c154: x71 >= 30
 c155: x71 <= 60
 c156: x72 >= 50
 c157: x72 <= 100
 c158: - 0.833333313465118 x71 + x252  = 0
 c159: - 1.25 x72 + x253  = 0
 c160: x254 >= 0
 c161: x254 <= 1
 c162: - x249 + x254 - 0.00474999994039536 x255 + 0.00526315796078077 x256  = 0
 c163: x255 >= 0
 c164: x256 >= 0
 c165: 210.526318431231 x249 + x255 <= 210.526318431231
 c166: - 189.999997615814 x249 + x256 <= 0
 c167: x64 + x65 + x66 - x67 + x71 + x72 - x255 + x256  = 244
 c168: x68 - x69 + x70 + x252 + x253  = 160
 c169: x73 >= 0
 c170: x73 <= 80
 c171: x74 >= 0
 c172: x74 <= 90
 c173: x79 >= 0
 c174: x79 <= 80
 c175: x80 >= 30
 c176: x80 <= 60
 c177: x81 >= 50
 c178: x81 <= 100
 c179: - 0.833333313465118 x80 + x257  = 0
 c180: - 1.25 x81 + x258  = 0
 c181: x259 >= 0
 c182: x259 <= 1
 c183: - x254 + x259 - 0.00474999994039536 x260 + 0.00526315796078077 x261  = 0
 c184: x260 >= 0
 c185: x261 >= 0
 c186: 210.526318431231 x254 + x260 <= 210.526318431231
 c187: - 189.999997615814 x254 + x261 <= 0
 c188: x73 + x74 + x75 - x76 + x80 + x81 - x260 + x261  = 243
 c189: x77 - x78 + x79 + x257 + x258  = 175
 c190: x82 >= 0
 c191: x82 <= 80
 c192: x83 >= 0
 c193: x83 <= 90
 c194: x88 >= 0
 c195: x88 <= 80
 c196: x89 >= 30
 c197: x89 <= 60
 c198: x90 >= 50
 c199: x90 <= 100
 c200: - 0.833333313465118 x89 + x262  = 0
 c201: - 1.25 x90 + x263  = 0
 c202: x264 >= 0
 c203: x264 <= 1
 c204: - x259 + x264 - 0.00474999994039536 x265 + 0.00526315796078077 x266  = 0
 c205: x265 >= 0
 c206: x266 >= 0
 c207: 210.526318431231 x259 + x265 <= 210.526318431231
 c208: - 189.999997615814 x259 + x266 <= 0
 c209: x82 + x83 + x84 - x85 + x89 + x90 - x265 + x266  = 241
 c210: x86 - x87 + x88 + x262 + x263  = 190
 c211: x91 >= 0
 c212: x91 <= 80
 c213: x92 >= 0
 c214: x92 <= 90
 c215: x97 >= 0
 c216: x97 <= 80
 c217: x98 >= 30
 c218: x98 <= 60
 c219: x99 >= 50
 c220: x99 <= 100
 c221: - 0.833333313465118 x98 + x267  = 0
 c222: - 1.25 x99 + x268  = 0
 c223: x269 >= 0
 c224: x269 <= 1
 c225: - x264 + x269 - 0.00474999994039536 x270 + 0.00526315796078077 x271  = 0
 c226: x270 >= 0
 c227: x271 >= 0
 c228: 210.526318431231 x264 + x270 <= 210.526318431231
 c229: - 189.999997615814 x264 + x271 <= 0
 c230: x91 + x92 + x93 - x94 + x98 + x99 - x270 + x271  = 147
 c231: x95 - x96 + x97 + x267 + x268  = 195
 c232: x100 >= 0
 c233: x100 <= 80
 c234: x101 >= 0
 c235: x101 <= 90
 c236: x106 >= 0
 c237: x106 <= 80
 c238: x107 >= 30
 c239: x107 <= 60
 c240: x108 >= 50
 c241: x108 <= 100
 c242: - 0.833333313465118 x107 + x272  = 0
 c243: - 1.25 x108 + x273  = 0
 c244: x274 >= 0
 c245: x274 <= 1
 c246: - x269 + x274 - 0.00474999994039536 x275 + 0.00526315796078077 x276  = 0
 c247: x275 >= 0
 c248: x276 >= 0
 c249: 210.526318431231 x269 + x275 <= 210.526318431231
 c250: - 189.999997615814 x269 + x276 <= 0
 c251: x100 + x101 + x102 - x103 + x107 + x108 - x275 + x276  = 102
 c252: x104 - x105 + x106 + x272 + x273  = 200
 c253: x109 >= 0
 c254: x109 <= 80
 c255: x110 >= 0
 c256: x110 <= 90
 c257: x115 >= 0
 c258: x115 <= 80
 c259: x116 >= 30
 c260: x116 <= 60
 c261: x117 >= 50
 c262: x117 <= 100
 c263: - 0.833333313465118 x116 + x277  = 0
 c264: - 1.25 x117 + x278  = 0
 c265: x279 >= 0
 c266: x279 <= 1
 c267: - x274 + x279 - 0.00474999994039536 x280 + 0.00526315796078077 x281  = 0
 c268: x280 >= 0
 c269: x281 >= 0
 c270: 210.526318431231 x274 + x280 <= 210.526318431231
 c271: - 189.999997615814 x274 + x281 <= 0
 c272: x109 + x110 + x111 - x112 + x116 + x117 - x280 + x281  = 95
 c273: x113 - x114 + x115 + x277 + x278  = 195
 c274: x118 >= 0
 c275: x118 <= 80
 c276: x119 >= 0
 c277: x119 <= 90
 c278: x124 >= 0
 c279: x124 <= 80
 c280: x125 >= 30
 c281: x125 <= 60
 c282: x126 >= 50
 c283: x126 <= 100
 c284: - 0.833333313465118 x125 + x282  = 0
 c285: - 1.25 x126 + x283  = 0
 c286: x284 >= 0
 c287: x284 <= 1
 c288: - x279 + x284 - 0.00474999994039536 x285 + 0.00526315796078077 x286  = 0
 c289: x285 >= 0
 c290: x286 >= 0
 c291: 210.526318431231 x279 + x285 <= 210.526318431231
 c292: - 189.999997615814 x279 + x286 <= 0
 c293: x118 + x119 + x120 - x121 + x125 + x126 - x285 + x286  = 92
 c294: x122 - x123 + x124 + x282 + x283  = 195
 c295: x127 >= 0
 c296: x127 <= 80
 c297: x128 >= 0
 c298: x128 <= 90
 c299: x133 >= 0
 c300: x133 <= 80
 c301: x134 >= 30
 c302: x134 <= 60
 c303: x135 >= 50
 c304: x135 <= 100
 c305: - 0.833333313465118 x134 + x287  = 0
 c306: - 1.25 x135 + x288  = 0
 c307: x289 >= 0
 c308: x289 <= 1
 c309: - x284 + x289 - 0.00474999994039536 x290 + 0.00526315796078077 x291  = 0
 c310: x290 >= 0
 c311: x291 >= 0
 c312: 210.526318431231 x284 + x290 <= 210.526318431231
 c313: - 189.999997615814 x284 + x291 <= 0
 c314: x127 + x128 + x129 - x130 + x134 + x135 - x290 + x291  = 182
 c315: x131 - x132 + x133 + x287 + x288  = 180
 c316: x136 >= 0
 c317: x136 <= 80
 c318: x137 >= 0
 c319: x137 <= 90
 c320: x142 >= 0
 c321: x142 <= 80
 c322: x143 >= 30
 c323: x143 <= 60
 c324: x144 >= 50
 c325: x144 <= 100
 c326: - 0.833333313465118 x143 + x292  = 0
 c327: - 1.25 x144 + x293  = 0
 c328: x294 >= 0
 c329: x294 <= 1
 c330: - x289 + x294 - 0.00474999994039536 x295 + 0.00526315796078077 x296  = 0
 c331: x295 >= 0
 c332: x296 >= 0
 c333: 210.526318431231 x289 + x295 <= 210.526318431231
 c334: - 189.999997615814 x289 + x296 <= 0
 c335: x136 + x137 + x138 - x139 + x143 + x144 - x295 + x296  = 198
 c336: x140 - x141 + x142 + x292 + x293  = 170
 c337: x145 >= 0
 c338: x145 <= 80
 c339: x146 >= 0
 c340: x146 <= 90
 c341: x151 >= 0
 c342: x151 <= 80
 c343: x152 >= 30
 c344: x152 <= 60
 c345: x153 >= 50
 c346: x153 <= 100
 c347: - 0.833333313465118 x152 + x297  = 0
 c348: - 1.25 x153 + x298  = 0
 c349: x299 >= 0
 c350: x299 <= 1
 c351: - x294 + x299 - 0.00474999994039536 x300 + 0.00526315796078077 x301  = 0
 c352: x300 >= 0
 c353: x301 >= 0
 c354: 210.526318431231 x294 + x300 <= 210.526318431231
 c355: - 189.999997615814 x294 + x301 <= 0
 c356: x145 + x146 + x147 - x148 + x152 + x153 - x300 + x301  = 211
 c357: x149 - x150 + x151 + x297 + x298  = 185
 c358: x154 >= 0
 c359: x154 <= 80
 c360: x155 >= 0
 c361: x155 <= 90
 c362: x160 >= 0
 c363: x160 <= 80
 c364: x161 >= 30
 c365: x161 <= 60
 c366: x162 >= 50
 c367: x162 <= 100
 c368: - 0.833333313465118 x161 + x302  = 0
 c369: - 1.25 x162 + x303  = 0
 c370: x304 >= 0
 c371: x304 <= 1
 c372: - x299 + x304 - 0.00474999994039536 x305 + 0.00526315796078077 x306  = 0
 c373: x305 >= 0
 c374: x306 >= 0
 c375: 210.526318431231 x299 + x305 <= 210.526318431231
 c376: - 189.999997615814 x299 + x306 <= 0
 c377: x154 + x155 + x156 - x157 + x161 + x162 - x305 + x306  = 251
 c378: x158 - x159 + x160 + x302 + x303  = 190
 c379: x163 >= 0
 c380: x163 <= 80
 c381: x164 >= 0
 c382: x164 <= 90
 c383: x169 >= 0
 c384: x169 <= 80
 c385: x170 >= 30
 c386: x170 <= 60
 c387: x171 >= 50
 c388: x171 <= 100
 c389: - 0.833333313465118 x170 + x307  = 0
 c390: - 1.25 x171 + x308  = 0
 c391: x309 >= 0
 c392: x309 <= 1
 c393: - x304 + x309 - 0.00474999994039536 x310 + 0.00526315796078077 x311  = 0
 c394: x310 >= 0
 c395: x311 >= 0
 c396: 210.526318431231 x304 + x310 <= 210.526318431231
 c397: - 189.999997615814 x304 + x311 <= 0
 c398: x163 + x164 + x165 - x166 + x170 + x171 - x310 + x311  = 284
 c399: x167 - x168 + x169 + x307 + x308  = 195
 c400: x172 >= 0
 c401: x172 <= 80
 c402: x173 >= 0
 c403: x173 <= 90
 c404: x178 >= 0
 c405: x178 <= 80
 c406: x179 >= 30
 c407: x179 <= 60
 c408: x180 >= 50
 c409: x180 <= 100
 c410: - 0.833333313465118 x179 + x312  = 0
 c411: - 1.25 x180 + x313  = 0
 c412: x314 >= 0
 c413: x314 <= 1
 c414: - x309 + x314 - 0.00474999994039536 x315 + 0.00526315796078077 x316  = 0
 c415: x315 >= 0
 c416: x316 >= 0
 c417: 210.526318431231 x309 + x315 <= 210.526318431231
 c418: - 189.999997615814 x309 + x316 <= 0
 c419: x172 + x173 + x174 - x175 + x179 + x180 - x315 + x316  = 167
 c420: x176 - x177 + x178 + x312 + x313  = 200
 c421: x181 >= 0
 c422: x181 <= 80
 c423: x182 >= 0
 c424: x182 <= 90
 c425: x187 >= 0
 c426: x187 <= 80
 c427: x188 >= 30
 c428: x188 <= 60
 c429: x189 >= 50
 c430: x189 <= 100
 c431: - 0.833333313465118 x188 + x317  = 0
 c432: - 1.25 x189 + x318  = 0
 c433: x319 >= 0
 c434: x319 <= 1
 c435: - x314 + x319 - 0.00474999994039536 x320 + 0.00526315796078077 x321  = 0
 c436: x320 >= 0
 c437: x321 >= 0
 c438: 210.526318431231 x314 + x320 <= 210.526318431231
 c439: - 189.999997615814 x314 + x321 <= 0
 c440: x181 + x182 + x183 - x184 + x188 + x189 - x320 + x321  = 128
 c441: x185 - x186 + x187 + x317 + x318  = 195
 c442: x190 >= 0
 c443: x190 <= 80
 c444: x191 >= 0
 c445: x191 <= 90
 c446: x196 >= 0
 c447: x196 <= 80
 c448: x197 >= 30
 c449: x197 <= 60
 c450: x198 >= 50
 c451: x198 <= 100
 c452: - 0.833333313465118 x197 + x322  = 0
 c453: - 1.25 x198 + x323  = 0
 c454: x324 >= 0
 c455: x324 <= 1
 c456: - x319 + x324 - 0.00474999994039536 x325 + 0.00526315796078077 x326  = 0
 c457: x325 >= 0
 c458: x326 >= 0
 c459: 210.526318431231 x319 + x325 <= 210.526318431231
 c460: - 189.999997615814 x319 + x326 <= 0
 c461: x190 + x191 + x192 - x193 + x197 + x198 - x325 + x326  = 134
 c462: x194 - x195 + x196 + x322 + x323  = 190
 c463: x199 >= 0
 c464: x199 <= 80
 c465: x200 >= 0
 c466: x200 <= 90
 c467: x205 >= 0
 c468: x205 <= 80
 c469: x206 >= 30
 c470: x206 <= 60
 c471: x207 >= 50
 c472: x207 <= 100
 c473: - 0.833333313465118 x206 + x327  = 0
 c474: - 1.25 x207 + x328  = 0
 c475: x329 >= 0
 c476: x329 <= 1
 c477: - x324 + x329 - 0.00474999994039536 x330 + 0.00526315796078077 x331  = 0
 c478: x330 >= 0
 c479: x331 >= 0
 c480: 210.526318431231 x324 + x330 <= 210.526318431231
 c481: - 189.999997615814 x324 + x331 <= 0
 c482: x199 + x200 + x201 - x202 + x206 + x207 - x330 + x331  = 144
 c483: x203 - x204 + x205 + x327 + x328  = 180
 c484: x208 >= 0
 c485: x208 <= 80
 c486: x209 >= 0
 c487: x209 <= 90
 c488: x214 >= 0
 c489: x214 <= 80
 c490: x215 >= 30
 c491: x215 <= 60
 c492: x216 >= 50
 c493: x216 <= 100
 c494: - 0.833333313465118 x215 + x332  = 0
 c495: - 1.25 x216 + x333  = 0
 c496: x334 >= 0
 c497: x334 <= 1
 c498: - x329 + x334 - 0.00474999994039536 x335 + 0.00526315796078077 x336  = 0
 c499: x335 >= 0
 c500: x336 >= 0
 c501: 210.526318431231 x329 + x335 <= 210.526318431231
 c502: - 189.999997615814 x329 + x336 <= 0
 c503: x208 + x209 + x210 - x211 + x215 + x216 - x335 + x336  = 150
 c504: x212 - x213 + x214 + x332 + x333  = 175
Bounds
 0 <= x1 <= 80
 0 <= x2 <= 100
      x5 >= 0
      x6 >= 0
 0 <= x7 <= 80
 30 <= x8 <= 60
 50 <= x9 <= 100
 0 <= x10 <= 80
 0 <= x11 <= 100
      x14 >= 0
      x15 >= 0
 0 <= x16 <= 80
 30 <= x17 <= 60
 50 <= x18 <= 100
 0 <= x19 <= 80
 0 <= x20 <= 100
      x23 >= 0
      x24 >= 0
 0 <= x25 <= 80
 30 <= x26 <= 60
 50 <= x27 <= 100
 0 <= x28 <= 80
 0 <= x29 <= 100
      x32 >= 0
      x33 >= 0
 0 <= x34 <= 80
 30 <= x35 <= 60
 50 <= x36 <= 100
 0 <= x37 <= 80
 0 <= x38 <= 100
      x41 >= 0
      x42 >= 0
 0 <= x43 <= 80
 30 <= x44 <= 60
 50 <= x45 <= 100
 0 <= x46 <= 80
 0 <= x47 <= 100
      x50 >= 0
      x51 >= 0
 0 <= x52 <= 80
 30 <= x53 <= 60
 50 <= x54 <= 100
 0 <= x55 <= 80
 0 <= x56 <= 100
      x59 >= 0
      x60 >= 0
 0 <= x61 <= 80
 30 <= x62 <= 60
 50 <= x63 <= 100
 0 <= x64 <= 80
 0 <= x65 <= 100
      x68 >= 0
      x69 >= 0
 0 <= x70 <= 80
 30 <= x71 <= 60
 50 <= x72 <= 100
 0 <= x73 <= 80
 0 <= x74 <= 100
      x77 >= 0
      x78 >= 0
 0 <= x79 <= 80
 30 <= x80 <= 60
 50 <= x81 <= 100
 0 <= x82 <= 80
 0 <= x83 <= 100
      x86 >= 0
      x87 >= 0
 0 <= x88 <= 80
 30 <= x89 <= 60
 50 <= x90 <= 100
 0 <= x91 <= 80
 0 <= x92 <= 100
      x95 >= 0
      x96 >= 0
 0 <= x97 <= 80
 30 <= x98 <= 60
 50 <= x99 <= 100
 0 <= x100 <= 80
 0 <= x101 <= 100
      x104 >= 0
      x105 >= 0
 0 <= x106 <= 80
 30 <= x107 <= 60
 50 <= x108 <= 100
 0 <= x109 <= 80
 0 <= x110 <= 100
      x113 >= 0
      x114 >= 0
 0 <= x115 <= 80
 30 <= x116 <= 60
 50 <= x117 <= 100
 0 <= x118 <= 80
 0 <= x119 <= 100
      x122 >= 0
      x123 >= 0
 0 <= x124 <= 80
 30 <= x125 <= 60
 50 <= x126 <= 100
 0 <= x127 <= 80
 0 <= x128 <= 100
      x131 >= 0
      x132 >= 0
 0 <= x133 <= 80
 30 <= x134 <= 60
 50 <= x135 <= 100
 0 <= x136 <= 80
 0 <= x137 <= 100
      x140 >= 0
      x141 >= 0
 0 <= x142 <= 80
 30 <= x143 <= 60
 50 <= x144 <= 100
 0 <= x145 <= 80
 0 <= x146 <= 100
      x149 >= 0
      x150 >= 0
 0 <= x151 <= 80
 30 <= x152 <= 60
 50 <= x153 <= 100
 0 <= x154 <= 80
 0 <= x155 <= 100
      x158 >= 0
      x159 >= 0
 0 <= x160 <= 80
 30 <= x161 <= 60
 50 <= x162 <= 100
 0 <= x163 <= 80
 0 <= x164 <= 100
      x167 >= 0
      x168 >= 0
 0 <= x169 <= 80
 30 <= x170 <= 60
 50 <= x171 <= 100
 0 <= x172 <= 80
 0 <= x173 <= 100
      x176 >= 0
      x177 >= 0
 0 <= x178 <= 80
 30 <= x179 <= 60
 50 <= x180 <= 100
 0 <= x181 <= 80
 0 <= x182 <= 100
      x185 >= 0
      x186 >= 0
 0 <= x187 <= 80
 30 <= x188 <= 60
 50 <= x189 <= 100
 0 <= x190 <= 80
 0 <= x191 <= 100
      x194 >= 0
      x195 >= 0
 0 <= x196 <= 80
 30 <= x197 <= 60
 50 <= x198 <= 100
 0 <= x199 <= 80
 0 <= x200 <= 100
      x203 >= 0
      x204 >= 0
 0 <= x205 <= 80
 30 <= x206 <= 60
 50 <= x207 <= 100
 0 <= x208 <= 80
 0 <= x209 <= 100
      x212 >= 0
      x213 >= 0
 0 <= x214 <= 80
 30 <= x215 <= 60
 50 <= x216 <= 100
 0 <= x219 <= 1
 0 <= x220 <= 100
 0 <= x221 <= 100
 0 <= x224 <= 1
 0 <= x225 <= 100
 0 <= x226 <= 100
 0 <= x229 <= 1
 0 <= x230 <= 100
 0 <= x231 <= 100
 0 <= x234 <= 1
 0 <= x235 <= 100
 0 <= x236 <= 100
 0 <= x239 <= 1
 0 <= x240 <= 100
 0 <= x241 <= 100
 0 <= x244 <= 1
 0 <= x245 <= 100
 0 <= x246 <= 100
 0 <= x249 <= 1
 0 <= x250 <= 100
 0 <= x251 <= 100
 0 <= x254 <= 1
 0 <= x255 <= 100
 0 <= x256 <= 100
 0 <= x259 <= 1
 0 <= x260 <= 100
 0 <= x261 <= 100
 0 <= x264 <= 1
 0 <= x265 <= 100
 0 <= x266 <= 100
 0 <= x269 <= 1
 0 <= x270 <= 100
 0 <= x271 <= 100
 0 <= x274 <= 1
 0 <= x275 <= 100
 0 <= x276 <= 100
 0 <= x279 <= 1
 0 <= x280 <= 100
 0 <= x281 <= 100
 0 <= x284 <= 1
 0 <= x285 <= 100
 0 <= x286 <= 100
 0 <= x289 <= 1
 0 <= x290 <= 100
 0 <= x291 <= 100
 0 <= x294 <= 1
 0 <= x295 <= 100
 0 <= x296 <= 100
 0 <= x299 <= 1
 0 <= x300 <= 100
 0 <= x301 <= 100
 0 <= x304 <= 1
 0 <= x305 <= 100
 0 <= x306 <= 100
 0 <= x309 <= 1
 0 <= x310 <= 100
 0 <= x311 <= 100
 0 <= x314 <= 1
 0 <= x315 <= 100
 0 <= x316 <= 100
 0 <= x319 <= 1
 0 <= x320 <= 100
 0 <= x321 <= 100
 0 <= x324 <= 1
 0 <= x325 <= 100
 0 <= x326 <= 100
 0 <= x329 <= 1
 0 <= x330 <= 100
 0 <= x331 <= 100
 0 <= x334 <= 1
 0 <= x335 <= 100
 0 <= x336 <= 100
Generals
 x1  x2  x5  x6  x7  x8  x9  x10  x11  x14  x15  x16  x17  x18  x19  x20  x23 
 x24  x25  x26  x27  x28  x29  x32  x33  x34  x35  x36  x37  x38  x41  x42 
 x43  x44  x45  x46  x47  x50  x51  x52  x53  x54  x55  x56  x59  x60  x61 
 x62  x63  x64  x65  x68  x69  x70  x71  x72  x73  x74  x77  x78  x79  x80 
 x81  x82  x83  x86  x87  x88  x89  x90  x91  x92  x95  x96  x97  x98  x99 
 x100  x101  x104  x105  x106  x107  x108  x109  x110  x113  x114  x115  x116 
 x117  x118  x119  x122  x123  x124  x125  x126  x127  x128  x131  x132  x133 
 x134  x135  x136  x137  x140  x141  x142  x143  x144  x145  x146  x149  x150 
 x151  x152  x153  x154  x155  x158  x159  x160  x161  x162  x163  x164  x167 
 x168  x169  x170  x171  x172  x173  x176  x177  x178  x179  x180  x181  x182 
 x185  x186  x187  x188  x189  x190  x191  x194  x195  x196  x197  x198  x199 
 x200  x203  x204  x205  x206  x207  x208  x209  x212  x213  x214  x215  x216 
End
